
Log started (V11.0.0) Sun Apr 13 13:00:44 2008

Tried aggregator 1 time.
Reduced MIP has 140 rows, 4001 columns, and 8040 nonzeros.
Presolve time =    0.03 sec.
Clique table members: 100.
MIP emphasis: balance optimality and feasibility.
MIP search method: dynamic search.
Parallel mode: none, using 1 thread.
Root relaxation solution time =    0.11 sec.

        Nodes                                         Cuts/
   Node  Left     Objective  IInf  Best Integer     Best Node    ItCnt     Gap

*     0+    0                         5091.0000        8.6520      683   99.83%
*     0+    0                           18.0000        8.6520      683   51.93%
      0     0        9.0000    58       18.0000      Fract: 6      720   50.00%
*     0+    0                           16.0000        9.0000      720   43.75%
      0     0        9.6000    50       16.0000   Impl Bds: 1      756   40.00%
*     0+    0                           15.0000        9.6000      756   36.00%
      0     0       10.5000    55       15.0000      Cuts: 31      797   30.00%
*     0+    0                           14.0000       10.5000      797   25.00%

Implied bound cuts applied:  2
Mixed integer rounding cuts applied:  25

Solution pool: 5 solutions saved.

MIP - Integer optimal solution:  Objective = 1.4000000000e+001
Solution time =    0.42 sec.  Iterations = 797  Nodes = 0


Incumbent solution
Variable Name           Solution Value
Cmax                         14.000000
X_1_35                        1.000000
X_2_2                         1.000000
X_3_19                        1.000000
X_4_11                        1.000000
X_5_19                        1.000000
X_6_14                        1.000000
X_7_3                         1.000000
X_8_16                        1.000000
X_9_7                         1.000000
X_10_38                       1.000000
X_11_10                       1.000000
X_12_10                       1.000000
X_13_14                       1.000000
X_14_6                        1.000000
X_15_35                       1.000000
X_16_30                       1.000000
X_17_13                       1.000000
X_18_2                        1.000000
X_19_33                       1.000000
X_20_8                        1.000000
X_21_19                       1.000000
X_22_21                       1.000000
X_23_2                        1.000000
X_24_1                        1.000000
X_25_13                       1.000000
X_26_14                       1.000000
X_27_15                       1.000000
X_28_23                       1.000000
X_29_29                       1.000000
X_30_25                       1.000000
X_31_3                        1.000000
X_32_14                       1.000000
X_33_17                       1.000000
X_34_24                       1.000000
X_35_28                       1.000000
X_36_29                       1.000000
X_37_28                       1.000000
X_38_23                       1.000000
X_39_24                       1.000000
X_40_7                        1.000000
X_41_31                       1.000000
X_42_25                       1.000000
X_43_8                        1.000000
X_44_26                       1.000000
X_45_2                        1.000000
X_46_37                       1.000000
X_47_7                        1.000000
X_48_40                       1.000000
X_49_36                       1.000000
X_50_11                       1.000000
X_51_2                        1.000000
X_52_21                       1.000000
X_53_26                       1.000000
X_54_18                       1.000000
X_55_7                        1.000000
X_56_3                        1.000000
X_57_4                        1.000000
X_58_18                       1.000000
X_59_34                       1.000000
X_60_5                        1.000000
X_61_3                        1.000000
X_62_27                       1.000000
X_63_27                       1.000000
X_64_31                       1.000000
X_65_23                       1.000000
X_66_25                       1.000000
X_67_17                       1.000000
X_68_1                        1.000000
X_69_32                       1.000000
X_70_4                        1.000000
X_71_12                       1.000000
X_72_33                       1.000000
X_73_21                       1.000000
X_74_15                       1.000000
X_75_33                       1.000000
X_76_22                       1.000000
X_77_34                       1.000000
X_78_6                        1.000000
X_79_24                       1.000000
X_80_30                       1.000000
X_81_38                       1.000000
X_82_26                       1.000000
X_83_18                       1.000000
X_84_40                       1.000000
X_85_4                        1.000000
X_86_1                        1.000000
X_87_36                       1.000000
X_88_11                       1.000000
X_89_9                        1.000000
X_90_29                       1.000000
X_91_1                        1.000000
X_92_22                       1.000000
X_93_22                       1.000000
X_94_29                       1.000000
X_95_30                       1.000000
X_96_8                        1.000000
X_97_11                       1.000000
X_98_28                       1.000000
X_99_38                       1.000000
X_100_33                      1.000000
All other variables in the range 1-4001 are 0.
